(declare-const term_to_project_onto0_integralized Int)
(declare-const term_to_project_onto_integralized Int)
(declare-const term_to_project_onto2_integralized Int)
(declare-const term_to_project_onto1_integralized Int)
(assert (exists
         ((|x'?1?1| Int) (havoc?2?2 Int) (phi_tmp?3?3 Int) (|tmp'?4?4| Int)
            (|y'?5?5| Int) (|__cost'?6?6| Int) (K?7?7 Int) (|y'?8?8| Int)
            (|tmp'?9?9| Int) (|__cost'?10?10| Int) (m?11?11 Int)
            (y?12?12 Int) (tmp?13?13 Int) (n?14?14 Int) (x?15?15 Int)
            (__cost?16?16 Int))
         (and (<= (+ (- n?14?14) x?15?15 1) 0) (<= (- __cost?16?16) 0)
                (<= (+ (- __cost?16?16) -1) 0)
                (= (+ (- |__cost'?6?6|) K?7?7 __cost?16?16 1) 0)
                (= (+ y?12?12 (- |y'?5?5|) K?7?7) 0)
                (or (and (= K?7?7 0) (= (+ y?12?12 (- |y'?5?5|)) 0)
                           (= (+ (- |tmp'?4?4|) tmp?13?13) 0)
                           (= (+ (- |__cost'?6?6|) __cost?16?16 1) 0))
                      (and (<= (+ (- K?7?7) 1) 0)
                             (<= (+ (- m?11?11) y?12?12 1) 0)
                             (<= (- __cost?16?16) 0)
                             (<= (+ (- |__cost'?6?6|) 2) 0)
                             (<= (+ (- m?11?11) |y'?5?5|) 0)))
                (<= (- K?7?7) 0) (<= (+ (- |__cost'?6?6|) 1) 0)
                (or (and (<= (+ m?11?11 (- |y'?5?5|)) 0)
                           (= (+ (- phi_tmp?3?3) |tmp'?4?4|) 0))
                      (and (<= (+ (- m?11?11) |y'?5?5| 1) 0) (= havoc?2?2 0)
                             (= (+ havoc?2?2 (- phi_tmp?3?3)) 0)))
                (= (+ |y'?8?8| (- |y'?5?5|)) 0)
                (= (+ |x'?1?1| (- x?15?15) -1) 0)
                (= (+ |tmp'?9?9| (- phi_tmp?3?3)) 0)
                (= (+ |__cost'?10?10| (- |__cost'?6?6|)) 0)
                (= (+ term_to_project_onto2_integralized
                        (- (+ |__cost'?10?10| (- __cost?16?16)))) 0)
                (= (+ term_to_project_onto1_integralized
                        (- (+ |tmp'?9?9| (- tmp?13?13)))) 0)
                (= (+ term_to_project_onto0_integralized
                        (- (+ |x'?1?1| (- x?15?15)))) 0)
                (= (+ term_to_project_onto_integralized
                        (- (+ |y'?8?8| (- y?12?12)))) 0))))